(declare-fun Constructed_Argument_t () String)
(declare-fun CreateAsClass () Bool)
(declare-fun Constructed_Argument () Real)
(declare-fun ExpandObjSwitcher () Real)
(declare-fun Constructed_Argument_2_t () String)
(declare-fun Constructed_Argument_3_t () String)
(declare-fun CreateAsClass_2 () Bool)
(declare-fun Constructed_Argument_2_elements_concrete_0_t () String)
(declare-fun Constructed_Argument_2_elements_concrete_0_Array_Length () Int)
(declare-fun Constructed_Argument_2_elements__name_1_t () String)
(declare-fun Constructed_Argument_2_elements__core_2_t () String)
(declare-fun Constructed_Argument_2_elements__set_3_t () String)
(declare-fun Constructed_Argument_2_elements__lastIndex_4_t () String)
(declare-fun Constructed_Argument_2_elements_undefined_5_t () String)
(declare-fun Constructed_Argument_2_elements_undefined_5 () String)
(declare-fun Constructed_Argument_4_t () String)
(declare-fun Constructed_Argument_5_t () String)
(declare-fun Constructed_Argument_6_t () String)
(declare-fun Constructed_Argument_7_t () String)
(declare-fun Constructed_Argument_8_t () String)
(declare-fun Constructed_Argument_9_t () String)
(declare-fun Constructed_Argument_10_t () String)
(declare-fun Constructed_Argument_11_t () String)
(declare-fun Constructed_Argument_12_t () String)
(assert (= Constructed_Argument_t "number"))
(assert (not CreateAsClass))
(assert (not (= Constructed_Argument 0.0)))
(assert (= ExpandObjSwitcher 4.0))
(assert (= Constructed_Argument_2_t "object"))
(assert (not (= Constructed_Argument_3_t "string")))
(assert (not (= Constructed_Argument_3_t "number")))
(assert (not (= Constructed_Argument_3_t "boolean")))
(assert (not (= Constructed_Argument_3_t "object")))
(assert (not (= Constructed_Argument_3_t "array_number")))
(assert (not (= Constructed_Argument_3_t "array_string")))
(assert (not (= Constructed_Argument_3_t "array_bool")))
(assert (not (= Constructed_Argument_3_t "null")))
(assert (not CreateAsClass_2))
(assert (= Constructed_Argument_2_elements_concrete_0_t "array_bool"))
(assert (>= Constructed_Argument_2_elements_concrete_0_Array_Length 0))
(assert (not (= Constructed_Argument_2_elements__name_1_t "string")))
(assert (not (= Constructed_Argument_2_elements__name_1_t "number")))
(assert (not (= Constructed_Argument_2_elements__name_1_t "boolean")))
(assert (not (= Constructed_Argument_2_elements__name_1_t "object")))
(assert (not (= Constructed_Argument_2_elements__name_1_t "array_number")))
(assert (not (= Constructed_Argument_2_elements__name_1_t "array_string")))
(assert (not (= Constructed_Argument_2_elements__name_1_t "array_bool")))
(assert (not (= Constructed_Argument_2_elements__name_1_t "null")))
(assert (not (= Constructed_Argument_2_elements__core_2_t "string")))
(assert (not (= Constructed_Argument_2_elements__core_2_t "number")))
(assert (not (= Constructed_Argument_2_elements__core_2_t "boolean")))
(assert (not (= Constructed_Argument_2_elements__core_2_t "object")))
(assert (not (= Constructed_Argument_2_elements__core_2_t "array_number")))
(assert (not (= Constructed_Argument_2_elements__core_2_t "array_string")))
(assert (not (= Constructed_Argument_2_elements__core_2_t "array_bool")))
(assert (not (= Constructed_Argument_2_elements__core_2_t "null")))
(assert (not (= Constructed_Argument_2_elements__set_3_t "string")))
(assert (not (= Constructed_Argument_2_elements__set_3_t "number")))
(assert (not (= Constructed_Argument_2_elements__set_3_t "boolean")))
(assert (not (= Constructed_Argument_2_elements__set_3_t "object")))
(assert (not (= Constructed_Argument_2_elements__set_3_t "array_number")))
(assert (not (= Constructed_Argument_2_elements__set_3_t "array_string")))
(assert (not (= Constructed_Argument_2_elements__set_3_t "array_bool")))
(assert (not (= Constructed_Argument_2_elements__set_3_t "null")))
(assert (not (= Constructed_Argument_2_elements__lastIndex_4_t "string")))
(assert (not (= Constructed_Argument_2_elements__lastIndex_4_t "number")))
(assert (not (= Constructed_Argument_2_elements__lastIndex_4_t "boolean")))
(assert (not (= Constructed_Argument_2_elements__lastIndex_4_t "object")))
(assert (not (= Constructed_Argument_2_elements__lastIndex_4_t "array_number")))
(assert (not (= Constructed_Argument_2_elements__lastIndex_4_t "array_string")))
(assert (not (= Constructed_Argument_2_elements__lastIndex_4_t "array_bool")))
(assert (not (= Constructed_Argument_2_elements__lastIndex_4_t "null")))
(assert (= Constructed_Argument_2_elements_undefined_5_t "string"))
(assert (not (<= (to_real (str.len Constructed_Argument_2_elements_undefined_5)) 0.0)))
(assert (not (= Constructed_Argument_4_t "string")))
(assert (not (= Constructed_Argument_4_t "number")))
(assert (not (= Constructed_Argument_4_t "boolean")))
(assert (not (= Constructed_Argument_4_t "object")))
(assert (not (= Constructed_Argument_4_t "array_number")))
(assert (not (= Constructed_Argument_4_t "array_string")))
(assert (not (= Constructed_Argument_4_t "array_bool")))
(assert (not (= Constructed_Argument_4_t "null")))
(assert (not (<= (to_real (str.len Constructed_Argument_2_elements_undefined_5)) 1.0)))
(assert (not (= Constructed_Argument_5_t "string")))
(assert (not (= Constructed_Argument_5_t "number")))
(assert (not (= Constructed_Argument_5_t "boolean")))
(assert (not (= Constructed_Argument_5_t "object")))
(assert (not (= Constructed_Argument_5_t "array_number")))
(assert (not (= Constructed_Argument_5_t "array_string")))
(assert (not (= Constructed_Argument_5_t "array_bool")))
(assert (not (= Constructed_Argument_5_t "null")))
(assert (not (<= (to_real (str.len Constructed_Argument_2_elements_undefined_5)) 2.0)))
(assert (not (= Constructed_Argument_6_t "string")))
(assert (not (= Constructed_Argument_6_t "number")))
(assert (not (= Constructed_Argument_6_t "boolean")))
(assert (not (= Constructed_Argument_6_t "object")))
(assert (not (= Constructed_Argument_6_t "array_number")))
(assert (not (= Constructed_Argument_6_t "array_string")))
(assert (not (= Constructed_Argument_6_t "array_bool")))
(assert (not (= Constructed_Argument_6_t "null")))
(assert (not (<= (to_real (str.len Constructed_Argument_2_elements_undefined_5)) 3.0)))
(assert (not (= Constructed_Argument_7_t "string")))
(assert (not (= Constructed_Argument_7_t "number")))
(assert (not (= Constructed_Argument_7_t "boolean")))
(assert (not (= Constructed_Argument_7_t "object")))
(assert (not (= Constructed_Argument_7_t "array_number")))
(assert (not (= Constructed_Argument_7_t "array_string")))
(assert (not (= Constructed_Argument_7_t "array_bool")))
(assert (not (= Constructed_Argument_7_t "null")))
(assert (not (<= (to_real (str.len Constructed_Argument_2_elements_undefined_5)) 4.0)))
(assert (not (= Constructed_Argument_8_t "string")))
(assert (not (= Constructed_Argument_8_t "number")))
(assert (not (= Constructed_Argument_8_t "boolean")))
(assert (not (= Constructed_Argument_8_t "object")))
(assert (not (= Constructed_Argument_8_t "array_number")))
(assert (not (= Constructed_Argument_8_t "array_string")))
(assert (not (= Constructed_Argument_8_t "array_bool")))
(assert (not (= Constructed_Argument_8_t "null")))
(assert (not (<= (to_real (str.len Constructed_Argument_2_elements_undefined_5)) 5.0)))
(assert (not (= Constructed_Argument_9_t "string")))
(assert (not (= Constructed_Argument_9_t "number")))
(assert (not (= Constructed_Argument_9_t "boolean")))
(assert (not (= Constructed_Argument_9_t "object")))
(assert (not (= Constructed_Argument_9_t "array_number")))
(assert (not (= Constructed_Argument_9_t "array_string")))
(assert (not (= Constructed_Argument_9_t "array_bool")))
(assert (not (= Constructed_Argument_9_t "null")))
(assert (not (<= (to_real (str.len Constructed_Argument_2_elements_undefined_5)) 6.0)))
(assert (not (= Constructed_Argument_10_t "string")))
(assert (not (= Constructed_Argument_10_t "number")))
(assert (not (= Constructed_Argument_10_t "boolean")))
(assert (not (= Constructed_Argument_10_t "object")))
(assert (not (= Constructed_Argument_10_t "array_number")))
(assert (not (= Constructed_Argument_10_t "array_string")))
(assert (not (= Constructed_Argument_10_t "array_bool")))
(assert (not (= Constructed_Argument_10_t "null")))
(assert (not (<= (to_real (str.len Constructed_Argument_2_elements_undefined_5)) 7.0)))
(assert (not (= Constructed_Argument_11_t "string")))
(assert (not (= Constructed_Argument_11_t "number")))
(assert (not (= Constructed_Argument_11_t "boolean")))
(assert (not (= Constructed_Argument_11_t "object")))
(assert (not (= Constructed_Argument_11_t "array_number")))
(assert (not (= Constructed_Argument_11_t "array_string")))
(assert (not (= Constructed_Argument_11_t "array_bool")))
(assert (not (= Constructed_Argument_11_t "null")))
(assert (not (<= (to_real (str.len Constructed_Argument_2_elements_undefined_5)) 8.0)))
(assert (not (= Constructed_Argument_12_t "string")))
(assert (not (= Constructed_Argument_12_t "number")))
(assert (= Constructed_Argument_12_t "boolean"))
(check-sat)
